presolving:
(round 1, fast)       0 del vars, 0 del conss, 0 add conss, 37500 chg bounds, 0 chg sides, 36 chg coeffs, 0 upgd conss, 0 impls, 18750 clqs
   (0.2s) running MILP presolver
   (0.2s) MILP presolver found nothing
(round 2, exhaustive) 0 del vars, 0 del conss, 0 add conss, 37500 chg bounds, 0 chg sides, 72 chg coeffs, 19076 upgd conss, 0 impls, 18750 clqs
(round 3, fast)       0 del vars, 0 del conss, 0 add conss, 37500 chg bounds, 1 chg sides, 9124 chg coeffs, 19076 upgd conss, 0 impls, 18750 clqs
(round 4, medium)     0 del vars, 9036 del conss, 9000 add conss, 37500 chg bounds, 1 chg sides, 9124 chg coeffs, 19076 upgd conss, 0 impls, 18750 clqs
   (0.7s) probing: 51/18825 (0.3%) - 0 fixings, 0 aggregations, 0 implications, 0 bound changes
   (0.7s) probing aborted: 50/50 successive totally useless probings
   (0.7s) symmetry computation started: requiring (bin +, int -, cont +), (fixed: bin -, int +, cont -)
   (0.7s) no symmetry present
presolving (5 rounds: 5 fast, 3 medium, 2 exhaustive):
 0 deleted vars, 9036 deleted constraints, 9000 added constraints, 37500 tightened bounds, 0 added holes, 1 changed sides, 9124 changed coefficients
 0 implications, 18750 cliques
presolved problem has 18825 variables (18825 bin, 0 int, 0 impl, 0 cont) and 19040 constraints
     40 constraints of type <knapsack>
  18750 constraints of type <setppc>
    250 constraints of type <logicor>
Presolving Time: 0.69

 time | node  | left  |LP iter|LP it/n|mem/heur|mdpt |vars |cons |rows |cuts |sepa|confs|strbr|  dualbound   | primalbound  |  gap   | compl. 
t 0.8s|     1 |     0 |     0 |     - | trivial|   0 |  18k|  19k|   0 |   0 |  0 |   0 |   0 | 0.000000e+00 | 5.152992e+06 |    Inf | unknown
p 0.9s|     1 |     0 |     0 |     - |  clique|   0 |  18k|  19k|  19k|   0 |  0 |   0 |   0 | 0.000000e+00 | 2.221993e+05 |    Inf | unknown
 12.3s|     1 |     0 | 15687 |     - |   208M |   0 |  18k|  19k|  19k|   0 |  0 |   2 |   0 | 1.352460e+05 | 2.221993e+05 |  64.29%| unknown
r12.3s|     1 |     0 | 15687 |     - |rounding|   0 |  18k|  19k|  19k|   0 |  0 |   2 |   0 | 1.352460e+05 | 1.541021e+05 |  13.94%| unknown
 15.5s|     1 |     0 | 19074 |     - |   213M |   0 |  18k|  19k|  19k|   2 |  1 |   2 |   0 | 1.358816e+05 | 1.541021e+05 |  13.41%| unknown
 15.6s|     1 |     0 | 19074 |     - |   213M |   0 |  18k|  19k|  14k|   2 |  1 |   2 |   0 | 1.358816e+05 | 1.541021e+05 |  13.41%| unknown
 16.6s|     1 |     0 | 19608 |     - |   215M |   0 |  18k|  14k|  14k|   4 |  2 |   2 |   0 | 1.359042e+05 | 1.541021e+05 |  13.39%| unknown
 17.3s|     1 |     0 | 19626 |     - |   216M |   0 |  18k|  14k|  14k|   5 |  3 |   2 |   0 | 1.359043e+05 | 1.541021e+05 |  13.39%| unknown
 18.0s|     1 |     0 | 19673 |     - |   222M |   0 |  18k|  14k|  14k|   7 |  4 |   2 |   0 | 1.359068e+05 | 1.541021e+05 |  13.39%| unknown
 18.7s|     1 |     0 | 19679 |     - |   224M |   0 |  18k|  14k|  14k|   8 |  5 |   2 |   0 | 1.359070e+05 | 1.541021e+05 |  13.39%| unknown
 19.5s|     1 |     0 | 19701 |     - |   229M |   0 |  18k|  14k|  14k|   9 |  7 |   2 |   0 | 1.359084e+05 | 1.541021e+05 |  13.39%| unknown
o34.5s|     1 |     0 | 43850 |     - |feaspump|   0 |  18k|  12k|  14k|   9 |  9 |   2 |   0 | 1.359084e+05 | 1.371497e+05 |   0.91%| unknown
L35.6s|     1 |     0 | 44738 |     - |    rens|   0 |  18k|  12k|  14k|   9 |  9 |  21 |   0 | 1.359084e+05 | 1.361121e+05 |   0.15%| unknown
(run 1, node 1) restarting after 6801 global fixings of integer variables

(restart) converted 5 cuts from the global cut pool into linear constraints

presolving:
(round 1, fast)       9301 del vars, 2517 del conss, 0 add conss, 0 chg bounds, 1 chg sides, 10823 chg coeffs, 0 upgd conss, 0 impls, 9486 clqs
   (35.8s) running MILP presolver
   (35.9s) MILP presolver found nothing
presolving (2 rounds: 2 fast, 1 medium, 1 exhaustive):
 9301 deleted vars, 2517 deleted constraints, 0 added constraints, 0 tightened bounds, 0 added holes, 1 changed sides, 10823 changed coefficients
 0 implications, 9486 cliques
presolved problem has 9524 variables (9524 bin, 0 int, 0 impl, 0 cont) and 9773 constraints
     35 constraints of type <knapsack>
   9486 constraints of type <setppc>
      1 constraints of type <linear>
    251 constraints of type <logicor>
Presolving Time: 0.82
transformed 4/6 original solutions to the transformed problem space

 time | node  | left  |LP iter|LP it/n|mem/heur|mdpt |vars |cons |rows |cuts |sepa|confs|strbr|  dualbound   | primalbound  |  gap   | compl. 
 40.1s|     1 |     0 | 56596 |     - |   230M |   0 |9524 |9773 |9772 |   0 |  0 |  21 |   0 | 1.359084e+05 | 1.361121e+05 |   0.15%| unknown
 40.4s|     1 |     0 | 56596 |     - |   230M |   0 |9524 |9773 |7609 |   0 |  0 |  21 |   0 | 1.359084e+05 | 1.361121e+05 |   0.15%| unknown
 41.3s|     1 |     0 | 58364 |     - |   231M |   0 |9524 |7610 |7570 |   3 |  1 |  21 |   0 | 1.359084e+05 | 1.361121e+05 |   0.15%| unknown
 41.3s|     1 |     0 | 58364 |     - |   231M |   0 |9524 |7610 |6602 |   3 |  1 |  21 |   0 | 1.359084e+05 | 1.361121e+05 |   0.15%| unknown
 41.7s|     1 |     0 | 58651 |     - |   231M |   0 |9524 |6609 |6604 |   5 |  2 |  21 |   0 | 1.359084e+05 | 1.361121e+05 |   0.15%| unknown
 41.7s|     1 |     0 | 58651 |     - |   231M |   0 |9524 |6609 |6434 |   5 |  2 |  21 |   0 | 1.359084e+05 | 1.361121e+05 |   0.15%| unknown
 42.1s|     1 |     0 | 58970 |     - |   232M |   0 |9524 |6439 |6436 |   7 |  3 |  21 |   0 | 1.359631e+05 | 1.361121e+05 |   0.11%| unknown
 42.1s|     1 |     0 | 58970 |     - |   232M |   0 |9524 |6439 |6065 |   7 |  3 |  21 |   0 | 1.359631e+05 | 1.361121e+05 |   0.11%| unknown
(run 2, node 1) restarting after 5097 global fixings of integer variables

(restart) converted 4 cuts from the global cut pool into linear constraints

presolving:
(round 1, fast)       5097 del vars, 1 del conss, 0 add conss, 0 chg bounds, 1 chg sides, 5813 chg coeffs, 0 upgd conss, 0 impls, 4403 clqs
   (42.8s) running MILP presolver
   (42.8s) MILP presolver found nothing
(round 2, medium)     5097 del vars, 728 del conss, 723 add conss, 0 chg bounds, 2 chg sides, 5815 chg coeffs, 0 upgd conss, 0 impls, 4403 clqs
presolving (3 rounds: 3 fast, 2 medium, 1 exhaustive):
 5097 deleted vars, 728 deleted constraints, 723 added constraints, 0 tightened bounds, 0 added holes, 2 changed sides, 5815 changed coefficients
 0 implications, 4403 cliques
presolved problem has 4427 variables (4427 bin, 0 int, 0 impl, 0 cont) and 4678 constraints
     20 constraints of type <knapsack>
   4403 constraints of type <setppc>
      5 constraints of type <linear>
    250 constraints of type <logicor>
Presolving Time: 0.89
transformed 5/8 original solutions to the transformed problem space

 time | node  | left  |LP iter|LP it/n|mem/heur|mdpt |vars |cons |rows |cuts |sepa|confs|strbr|  dualbound   | primalbound  |  gap   | compl. 
 44.9s|     1 |     0 | 69914 |     - |   235M |   0 |4427 |4678 |4677 |   0 |  0 |  22 |   0 | 1.359631e+05 | 1.361121e+05 |   0.11%| unknown
 44.9s|     1 |     0 | 69914 |     - |   235M |   0 |4427 |4678 |4619 |   0 |  0 |  22 |   0 | 1.359631e+05 | 1.361121e+05 |   0.11%| unknown
 45.1s|     1 |     0 | 70532 |     - |   236M |   0 |4427 |4620 |4621 |   3 |  1 |  22 |   0 | 1.359632e+05 | 1.361121e+05 |   0.11%| unknown
 45.2s|     1 |     0 | 70532 |     - |   236M |   0 |4427 |4620 |4360 |   3 |  1 |  22 |   0 | 1.359632e+05 | 1.361121e+05 |   0.11%| unknown
 45.3s|     1 |     0 | 70592 |     - |   236M |   0 |4427 |4358 |4360 |   4 |  2 |  22 |   0 | 1.359806e+05 | 1.361121e+05 |   0.10%| unknown
 45.3s|     1 |     0 | 70592 |     - |   236M |   0 |4427 |4358 |4254 |   4 |  2 |  22 |   0 | 1.359806e+05 | 1.361121e+05 |   0.10%| unknown
 45.5s|     1 |     0 | 70595 |     - |   237M |   0 |4427 |4252 |4255 |   5 |  3 |  22 |   0 | 1.359808e+05 | 1.361121e+05 |   0.10%| unknown
 45.5s|     1 |     0 | 70595 |     - |   237M |   0 |4427 |4252 |4253 |   5 |  3 |  22 |   0 | 1.359808e+05 | 1.361121e+05 |   0.10%| unknown
 45.7s|     1 |     0 | 70597 |     - |   237M |   0 |4427 |4250 |4254 |   6 |  4 |  22 |   0 | 1.359808e+05 | 1.361121e+05 |   0.10%| unknown
 45.7s|     1 |     0 | 70597 |     - |   237M |   0 |4427 |4250 |4254 |   6 |  4 |  22 |   0 | 1.359808e+05 | 1.361121e+05 |   0.10%| unknown
(run 3, node 1) restarting after 683 global fixings of integer variables

(restart) converted 3 cuts from the global cut pool into linear constraints

presolving:
(round 1, fast)       683 del vars, 0 del conss, 0 add conss, 0 chg bounds, 0 chg sides, 929 chg coeffs, 0 upgd conss, 0 impls, 3722 clqs
   (46.3s) running MILP presolver
   (46.3s) MILP presolver found nothing
(round 2, medium)     683 del vars, 248 del conss, 247 add conss, 0 chg bounds, 0 chg sides, 929 chg coeffs, 0 upgd conss, 0 impls, 3722 clqs
presolving (3 rounds: 3 fast, 2 medium, 1 exhaustive):
 683 deleted vars, 248 deleted constraints, 247 added constraints, 0 tightened bounds, 0 added holes, 0 changed sides, 929 changed coefficients
 0 implications, 3722 cliques
presolved problem has 3744 variables (3744 bin, 0 int, 0 impl, 0 cont) and 3999 constraints
     18 constraints of type <knapsack>
   3722 constraints of type <setppc>
      8 constraints of type <linear>
    251 constraints of type <logicor>
Presolving Time: 0.96
transformed 6/10 original solutions to the transformed problem space

 time | node  | left  |LP iter|LP it/n|mem/heur|mdpt |vars |cons |rows |cuts |sepa|confs|strbr|  dualbound   | primalbound  |  gap   | compl. 
 47.5s|     1 |     0 | 79379 |     - |   241M |   0 |3744 |3999 |3997 |   0 |  0 |  23 |   0 | 1.359808e+05 | 1.361121e+05 |   0.10%| unknown
 47.5s|     1 |     0 | 79379 |     - |   241M |   0 |3744 |3999 |3934 |   0 |  0 |  23 |   0 | 1.359808e+05 | 1.361121e+05 |   0.10%| unknown
 47.8s|     1 |     0 | 80211 |     - |   242M |   0 |3744 |3936 |3935 |   2 |  1 |  23 |   0 | 1.359808e+05 | 1.361121e+05 |   0.10%| unknown
 47.8s|     1 |     0 | 80211 |     - |   242M |   0 |3744 |3936 |3786 |   2 |  1 |  23 |   0 | 1.359808e+05 | 1.361121e+05 |   0.10%| unknown
 48.0s|     1 |     0 | 80250 |     - |   242M |   0 |3744 |3787 |3788 |   4 |  2 |  23 |   0 | 1.359869e+05 | 1.361121e+05 |   0.09%| unknown
 48.0s|     1 |     0 | 80250 |     - |   242M |   0 |3744 |3787 |3746 |   4 |  2 |  23 |   0 | 1.359869e+05 | 1.361121e+05 |   0.09%| unknown
 48.2s|     1 |     0 | 80277 |     - |   242M |   0 |3744 |3745 |3748 |   6 |  3 |  23 |   0 | 1.359905e+05 | 1.361121e+05 |   0.09%| unknown
 48.2s|     1 |     0 | 80277 |     - |   242M |   0 |3744 |3745 |3731 |   6 |  3 |  23 |   0 | 1.359905e+05 | 1.361121e+05 |   0.09%| unknown
 48.4s|     1 |     0 | 80387 |     - |   243M |   0 |3744 |3728 |3732 |   7 |  4 |  23 |   0 | 1.359957e+05 | 1.361121e+05 |   0.09%| unknown
 48.4s|     1 |     0 | 80387 |     - |   243M |   0 |3744 |3728 |3707 |   7 |  4 |  23 |   0 | 1.359957e+05 | 1.361121e+05 |   0.09%| unknown
 48.5s|     1 |     0 | 80444 |     - |   243M |   0 |3744 |3703 |3708 |   8 |  5 |  23 |   0 | 1.359985e+05 | 1.361121e+05 |   0.08%| unknown
 48.6s|     1 |     0 | 80444 |     - |   243M |   0 |3744 |3703 |3691 |   8 |  5 |  23 |   0 | 1.359985e+05 | 1.361121e+05 |   0.08%| unknown
 48.7s|     1 |     0 | 80450 |     - |   244M |   0 |3744 |3686 |3692 |   9 |  6 |  23 |   0 | 1.359999e+05 | 1.361121e+05 |   0.08%| unknown
 48.7s|     1 |     0 | 80450 |     - |   244M |   0 |3744 |3686 |3685 |   9 |  6 |  23 |   0 | 1.359999e+05 | 1.361121e+05 |   0.08%| unknown
L49.1s|     1 |     0 | 80534 |     - |    rens|   0 |3744 |3571 |3685 |   9 |  8 |  25 |   0 | 1.359999e+05 | 1.360910e+05 |   0.07%| unknown
(run 4, node 1) restarting after 430 global fixings of integer variables

(restart) converted 6 cuts from the global cut pool into linear constraints

presolving:
(round 1, fast)       599 del vars, 171 del conss, 0 add conss, 0 chg bounds, 1 chg sides, 598 chg coeffs, 0 upgd conss, 0 impls, 3125 clqs
   (49.2s) running MILP presolver
   (49.2s) MILP presolver found nothing
presolving (2 rounds: 2 fast, 1 medium, 1 exhaustive):
 599 deleted vars, 171 deleted constraints, 0 added constraints, 0 tightened bounds, 0 added holes, 1 changed sides, 598 changed coefficients
 0 implications, 3125 cliques
presolved problem has 3145 variables (3145 bin, 0 int, 0 impl, 0 cont) and 3406 constraints
     17 constraints of type <knapsack>
   3125 constraints of type <setppc>
     13 constraints of type <linear>
    251 constraints of type <logicor>
Presolving Time: 1.00
transformed 8/12 original solutions to the transformed problem space

 time | node  | left  |LP iter|LP it/n|mem/heur|mdpt |vars |cons |rows |cuts |sepa|confs|strbr|  dualbound   | primalbound  |  gap   | compl. 
 49.9s|     1 |     0 | 86474 |     - |   246M |   0 |3145 |3406 |3404 |   0 |  0 |  25 |   0 | 1.359999e+05 | 1.360910e+05 |   0.07%| unknown
 49.9s|     1 |     0 | 86474 |     - |   246M |   0 |3145 |3406 |3275 |   0 |  0 |  25 |   0 | 1.359999e+05 | 1.360910e+05 |   0.07%| unknown
 50.2s|     1 |     0 | 87140 |     - |   247M |   0 |3145 |3277 |3273 |   2 |  1 |  25 |   0 | 1.359999e+05 | 1.360910e+05 |   0.07%| unknown
 50.2s|     1 |     0 | 87140 |     - |   247M |   0 |3145 |3277 |3060 |   2 |  1 |  25 |   0 | 1.359999e+05 | 1.360910e+05 |   0.07%| unknown
 50.3s|     1 |     0 | 87156 |     - |   247M |   0 |3145 |3060 |3061 |   3 |  2 |  25 |   0 | 1.359999e+05 | 1.360910e+05 |   0.07%| unknown
 50.3s|     1 |     0 | 87156 |     - |   247M |   0 |3145 |3060 |3054 |   3 |  2 |  25 |   0 | 1.359999e+05 | 1.360910e+05 |   0.07%| unknown
(run 5, node 1) restarting after 500 global fixings of integer variables

presolving:
(round 1, fast)       653 del vars, 153 del conss, 0 add conss, 0 chg bounds, 0 chg sides, 650 chg coeffs, 0 upgd conss, 0 impls, 2475 clqs
   (50.8s) running MILP presolver
   (50.8s) MILP presolver found nothing
presolving (2 rounds: 2 fast, 1 medium, 1 exhaustive):
 653 deleted vars, 153 deleted constraints, 0 added constraints, 0 tightened bounds, 0 added holes, 1 changed sides, 652 changed coefficients
 0 implications, 2475 cliques
presolved problem has 2492 variables (2492 bin, 0 int, 0 impl, 0 cont) and 2759 constraints
     16 constraints of type <knapsack>
   2475 constraints of type <setppc>
     13 constraints of type <linear>
    255 constraints of type <logicor>
Presolving Time: 1.05
transformed 9/13 original solutions to the transformed problem space

 time | node  | left  |LP iter|LP it/n|mem/heur|mdpt |vars |cons |rows |cuts |sepa|confs|strbr|  dualbound   | primalbound  |  gap   | compl. 
 51.3s|     1 |     0 | 92731 |     - |   248M |   0 |2492 |2759 |2753 |   0 |  0 |  31 |   0 | 1.359999e+05 | 1.360910e+05 |   0.07%| unknown
 51.3s|     1 |     0 | 92731 |     - |   248M |   0 |2492 |2759 |2678 |   0 |  0 |  31 |   0 | 1.359999e+05 | 1.360910e+05 |   0.07%| unknown
 51.5s|     1 |     0 | 93279 |     - |   249M |   0 |2492 |2684 |2680 |   2 |  1 |  31 |   0 | 1.359999e+05 | 1.360910e+05 |   0.07%| unknown
 51.5s|     1 |     0 | 93279 |     - |   249M |   0 |2492 |2684 |2661 |   2 |  1 |  31 |   0 | 1.359999e+05 | 1.360910e+05 |   0.07%| unknown
 51.6s|     1 |     0 | 93295 |     - |   249M |   0 |2492 |2665 |2662 |   3 |  2 |  31 |   0 | 1.359999e+05 | 1.360910e+05 |   0.07%| unknown
 51.8s|     1 |     2 | 93448 |     - |   249M |   0 |2492 |2523 |2662 |   3 |  4 |  32 |   4 | 1.360636e+05 | 1.360910e+05 |   0.02%| unknown
(run 6, node 1) restarting after 239 global fixings of integer variables

presolving:
(round 1, fast)       239 del vars, 170 del conss, 0 add conss, 0 chg bounds, 1 chg sides, 458 chg coeffs, 0 upgd conss, 0 impls, 2069 clqs
presolving (2 rounds: 2 fast, 1 medium, 1 exhaustive):
 239 deleted vars, 170 deleted constraints, 0 added constraints, 0 tightened bounds, 0 added holes, 1 changed sides, 458 changed coefficients
 0 implications, 2069 cliques
presolved problem has 2253 variables (2253 bin, 0 int, 0 impl, 0 cont) and 2353 constraints
     16 constraints of type <knapsack>
   2069 constraints of type <setppc>
     13 constraints of type <linear>
    255 constraints of type <logicor>
Presolving Time: 1.08
transformed 9/13 original solutions to the transformed problem space

 time | node  | left  |LP iter|LP it/n|mem/heur|mdpt |vars |cons |rows |cuts |sepa|confs|strbr|  dualbound   | primalbound  |  gap   | compl. 
 51.9s|     1 |     0 | 94902 |     - |   250M |   0 |2253 |2353 |2347 |   0 |  0 |  32 |   4 | 1.360636e+05 | 1.360910e+05 |   0.02%| unknown
 51.9s|     1 |     0 | 94902 |     - |   250M |   0 |2253 |2353 |1392 |   0 |  0 |  32 |   4 | 1.360636e+05 | 1.360910e+05 |   0.02%| unknown
 51.9s|     1 |     0 | 94913 |     - |   250M |   0 |2253 |1374 |1371 |   1 |  1 |  32 |   4 | 1.360676e+05 | 1.360910e+05 |   0.02%| unknown
 51.9s|     1 |     0 | 94913 |     - |   250M |   0 |2253 |1374 |1357 |   1 |  1 |  32 |   4 | 1.360676e+05 | 1.360910e+05 |   0.02%| unknown
 52.0s|     1 |     0 | 94925 |     - |   251M |   0 |2253 |1313 |1277 |   5 |  2 |  32 |   4 | 1.360699e+05 | 1.360910e+05 |   0.02%| unknown
 52.0s|     1 |     0 | 94925 |     - |   251M |   0 |2253 |1313 |1266 |   5 |  2 |  32 |   4 | 1.360699e+05 | 1.360910e+05 |   0.02%| unknown
 52.0s|     1 |     0 | 94942 |     - |   251M |   0 |2253 |1216 |1269 |   8 |  3 |  32 |   4 | 1.360715e+05 | 1.360910e+05 |   0.01%| unknown
 52.0s|     1 |     0 | 94942 |     - |   251M |   0 |2253 |1216 |1263 |   8 |  3 |  32 |   4 | 1.360715e+05 | 1.360910e+05 |   0.01%| unknown
 52.0s|     1 |     0 | 94952 |     - |   251M |   0 |2253 |1211 |1266 |  11 |  4 |  32 |   4 | 1.360723e+05 | 1.360910e+05 |   0.01%| unknown
 52.0s|     1 |     0 | 94952 |     - |   251M |   0 |2253 |1211 |1260 |  11 |  4 |  32 |   4 | 1.360723e+05 | 1.360910e+05 |   0.01%| unknown
 52.0s|     1 |     0 | 94974 |     - |   251M |   0 |2253 |1205 |1263 |  14 |  5 |  32 |   4 | 1.360734e+05 | 1.360910e+05 |   0.01%| unknown
 52.0s|     1 |     0 | 94974 |     - |   251M |   0 |2253 |1205 |1256 |  14 |  5 |  32 |   4 | 1.360734e+05 | 1.360910e+05 |   0.01%| unknown
 52.0s|     1 |     0 | 94991 |     - |   251M |   0 |2253 |1197 |1260 |  18 |  6 |  32 |   4 | 1.360739e+05 | 1.360910e+05 |   0.01%| unknown
 52.0s|     1 |     0 | 94991 |     - |   251M |   0 |2253 |1197 |1258 |  18 |  6 |  32 |   4 | 1.360739e+05 | 1.360910e+05 |   0.01%| unknown
 52.0s|     1 |     0 | 95017 |     - |   251M |   0 |2253 |1195 |1261 |  21 |  7 |  32 |   4 | 1.360776e+05 | 1.360910e+05 |   0.01%| unknown
 time | node  | left  |LP iter|LP it/n|mem/heur|mdpt |vars |cons |rows |cuts |sepa|confs|strbr|  dualbound   | primalbound  |  gap   | compl. 
 52.0s|     1 |     0 | 95017 |     - |   251M |   0 |2253 |1195 |1250 |  21 |  7 |  32 |   4 | 1.360776e+05 | 1.360910e+05 |   0.01%| unknown
 52.1s|     1 |     0 | 95027 |     - |   251M |   0 |2253 |1182 |1252 |  23 |  8 |  32 |   4 | 1.360790e+05 | 1.360910e+05 |   0.01%| unknown
 52.1s|     1 |     0 | 95027 |     - |   251M |   0 |2253 |1182 |1251 |  23 |  8 |  32 |   4 | 1.360790e+05 | 1.360910e+05 |   0.01%| unknown
 52.1s|     1 |     0 | 95029 |     - |   252M |   0 |2253 |1181 |1254 |  26 |  9 |  32 |   4 | 1.360791e+05 | 1.360910e+05 |   0.01%| unknown
 52.1s|     1 |     0 | 95055 |     - |   252M |   0 |2253 |1181 |1256 |  28 | 10 |  32 |   4 | 1.360863e+05 | 1.360910e+05 |   0.00%| unknown
 52.1s|     1 |     0 | 95055 |     - |   252M |   0 |2253 |1181 |1239 |  28 | 10 |  32 |   4 | 1.360863e+05 | 1.360910e+05 |   0.00%| unknown
 52.1s|     1 |     0 | 95062 |     - |   253M |   0 |2253 |1161 |1241 |  30 | 11 |  32 |   4 | 1.360867e+05 | 1.360910e+05 |   0.00%| unknown
 52.1s|     1 |     0 | 95062 |     - |   253M |   0 |2253 |1161 |1239 |  30 | 11 |  32 |   4 | 1.360867e+05 | 1.360910e+05 |   0.00%| unknown
 52.2s|     1 |     0 | 95095 |     - |   254M |   0 |2253 | 720 |1239 |  30 | 11 |  41 |   9 | 1.360910e+05 | 1.360910e+05 |   0.00%| unknown

SCIP Status        : problem is solved [optimal solution found]
Solving Time (sec) : 52.15
Solving Nodes      : 1 (total of 7 nodes in 7 runs)
Primal Bound       : +1.36090990876637e+05 (18 solutions)
Dual Bound         : +1.36090990876637e+05
Gap                : 0.00 %
Solve Status: optimal
Solve Time: 52.16 seconds
